(set-logic ALL)
(declare-const BAV1 Bool)
(declare-const BAV2 Bool)
(declare-const GEN2 Real)
(declare-const GEN1 Real)
(assert (<= GEN1 real.pi))
(assert (<= real.pi GEN2))
(assert (= BAV1 (<= GEN1 real.pi)))
(assert (= BAV2 (<= real.pi GEN2)))
(check-sat)
(get-model)